500
    1   204   204
    2   946   946
    3   448   448
    4   819   819
    5   654   654
    6   420   420
    7   863   863
    8   800   800
    9   928   928
   10   406   406
   11   294   294
   12   941   941
   13   801   801
   14    70    70
   15   608   608
   16   560   560
   17   769   769
   18   795   795
   19    70    70
   20   583   583
   21     8     8
   22   595   595
   23   183   183
   24   695   695
   25   696   696
   26   463   463
   27   616   616
   28   742   742
   29   561   561
   30   171   171
   31   801   801
   32   352   352
   33   481   481
   34   858   858
   35   396   396
   36   182   182
   37   997   997
   38   887   887
   39   458   458
   40   606   606
   41   737   737
   42   470   470
   43   844   844
   44   955   955
   45   656   656
   46   552   552
   47   331   331
   48   764   764
   49   465   465
   50   493   493
   51   132   132
   52   363   363
   53    70    70
   54   588   588
   55   636   636
   56   220   220
   57   810   810
   58   982   982
   59   171   171
   60   261   261
   61   398   398
   62   793   793
   63   800   800
   64   796   796
   65   240   240
   66   872   872
   67   617   617
   68   347   347
   69   744   744
   70   768   768
   71   109   109
   72   785   785
   73   448   448
   74   741   741
   75   553   553
   76   187   187
   77   160   160
   78   339   339
   79    59    59
   80   408   408
   81   451   451
   82   320   320
   83   902   902
   84   442   442
   85   730   730
   86   518   518
   87   634   634
   88   127   127
   89   731   731
   90    23    23
   91    47    47
   92   375   375
   93   358   358
   94   513   513
   95   526   526
   96     1     1
   97   659   659
   98   593   593
   99   668   668
  100   686   686
  101   507   507
  102   235   235
  103   652   652
  104   239   239
  105   289   289
  106   751   751
  107   464   464
  108   129   129
  109   581   581
  110   232   232
  111   588   588
  112   518   518
  113   909   909
  114   551   551
  115    31    31
  116   992   992
  117   472   472
  118   212   212
  119    54    54
  120   487   487
  121   209   209
  122   548   548
  123    87    87
  124   954   954
  125   180   180
  126   166   166
  127   303   303
  128   898   898
  129   880   880
  130   599   599
  131   840   840
  132   153   153
  133   465   465
  134   261   261
  135   115   115
  136   970   970
  137   720   720
  138   753   753
  139   270   270
  140   938   938
  141   722   722
  142   317   317
  143   378   378
  144   955   955
  145   906   906
  146   181   181
  147   803   803
  148   154   154
  149   892   892
  150   107   107
  151   557   557
  152   518   518
  153   615   615
  154     2     2
  155   551   551
  156   265   265
  157   837   837
  158    20    20
  159   183   183
  160   868   868
  161   866   866
  162   503   503
  163   122   122
  164   818   818
  165   599   599
  166   906   906
  167   422   422
  168   254   254
  169   226   226
  170   517   517
  171    38    38
  172   177   177
  173   284   284
  174   302   302
  175   640   640
  176   459   459
  177   630   630
  178   784   784
  179   775   775
  180   571   571
  181   497   497
  182   246   246
  183   489   489
  184     2     2
  185   977   977
  186   686   686
  187   572   572
  188   273   273
  189   700   700
  190   272   272
  191    57    57
  192   387   387
  193   117   117
  194   101   101
  195   853   853
  196   604   604
  197   264   264
  198   541   541
  199   128   128
  200   465   465
  201   921   921
  202   801   801
  203   972   972
  204   754   754
  205   398   398
  206   903   903
  207   388   388
  208   666   666
  209   141   141
  210   115   115
  211   134   134
  212   615   615
  213   115   115
  214    74    74
  215   455   455
  216   901   901
  217    35    35
  218     2     2
  219   737   737
  220   557   557
  221   895   895
  222   958   958
  223   163   163
  224   754   754
  225   669   669
  226   502   502
  227   309   309
  228   412   412
  229   377   377
  230   370   370
  231   567   567
  232   821   821
  233    43    43
  234   535   535
  235   565   565
  236   577   577
  237   261   261
  238   570   570
  239   929   929
  240   635   635
  241   564   564
  242   626   626
  243   917   917
  244   507   507
  245   232   232
  246   490   490
  247   539   539
  248   587   587
  249   553   553
  250   348   348
  251   851   851
  252   161   161
  253    24    24
  254   289   289
  255   960   960
  256   822   822
  257   591   591
  258   812   812
  259    55    55
  260   213   213
  261   406   406
  262   535   535
  263   965   965
  264   487   487
  265   547   547
  266   868   868
  267    20    20
  268   291   291
  269   293   293
  270   190   190
  271   802   802
  272   308   308
  273   149   149
  274   321   321
  275   703   703
  276   490   490
  277   466   466
  278   811   811
  279   840   840
  280   210   210
  281   783   783
  282   278   278
  283   301   301
  284   489   489
  285   211   211
  286   126   126
  287    51    51
  288   860   860
  289   653   653
  290   692   692
  291   630   630
  292   763   763
  293   970   970
  294   269   269
  295    31    31
  296   963   963
  297   645   645
  298   157   157
  299   830   830
  300   491   491
  301   393   393
  302   301   301
  303   741   741
  304   807   807
  305   262   262
  306   980   980
  307   464   464
  308   480   480
  309   910   910
  310   937   937
  311   204   204
  312   324   324
  313   890   890
  314   318   318
  315   771   771
  316   777   777
  317    38    38
  318   280   280
  319   113   113
  320   821   821
  321   965   965
  322   523   523
  323   175   175
  324   642   642
  325   730   730
  326   186   186
  327   866   866
  328   821   821
  329   285   285
  330   453   453
  331   974   974
  332   613   613
  333   375   375
  334   179   179
  335   252   252
  336   616   616
  337   754   754
  338   558   558
  339   893   893
  340   361   361
  341   735   735
  342   311   311
  343   722   722
  344   598   598
  345   397   397
  346   230   230
  347   562   562
  348   726   726
  349   971   971
  350   771   771
  351   527   527
  352   352   352
  353   666   666
  354   139   139
  355   517   517
  356   206   206
  357   866   866
  358   778   778
  359   688   688
  360   665   665
  361    87    87
  362   775   775
  363   161   161
  364   414   414
  365   544   544
  366    21    21
  367   284   284
  368    29    29
  369   965   965
  370   125   125
  371   585   585
  372    50    50
  373   474   474
  374   849   849
  375   781   781
  376   612   612
  377   372   372
  378   804   804
  379    29    29
  380   355   355
  381   102   102
  382   157   157
  383   831   831
  384   192   192
  385   696   696
  386   370   370
  387   604   604
  388   276   276
  389   917   917
  390   632   632
  391    78    78
  392   914   914
  393   224   224
  394   641   641
  395   690   690
  396   360   360
  397   763   763
  398   815   815
  399   809   809
  400   800   800
  401   835   835
  402   156   156
  403   353   353
  404   262   262
  405   755   755
  406    68    68
  407   483   483
  408   194   194
  409   931   931
  410   986   986
  411   617   617
  412   317   317
  413   436   436
  414   991   991
  415   590   590
  416   368   368
  417   571   571
  418   954   954
  419    49    49
  420   383   383
  421   920   920
  422   113   113
  423   848   848
  424   701   701
  425   531   531
  426   485   485
  427   581   581
  428   209   209
  429   890   890
  430   724   724
  431   783   783
  432   151   151
  433   216   216
  434   127   127
  435   688   688
  436   641   641
  437   173   173
  438   420   420
  439   542   542
  440   443   443
  441   110   110
  442   182   182
  443   489   489
  444   431   431
  445   961   961
  446   888   888
  447   672   672
  448    37    37
  449   528   528
  450   913   913
  451   776   776
  452    52    52
  453    15    15
  454   920   920
  455   777   777
  456   870   870
  457   843   843
  458   881   881
  459   103   103
  460   125   125
  461   577   577
  462   808   808
  463   842   842
  464    83    83
  465   649   649
  466   818   818
  467   354   354
  468   704   704
  469   213   213
  470   124   124
  471   436   436
  472   237   237
  473   721   721
  474    11    11
  475    49    49
  476    85    85
  477   793   793
  478    58    58
  479   641   641
  480   515   515
  481   673   673
  482   889   889
  483   315   315
  484   637   637
  485   997   997
  486   242   242
  487   871   871
  488   864   864
  489   398   398
  490   888   888
  491   155   155
  492   646   646
  493   638   638
  494   848   848
  495   614   614
  496   515   515
  497   112   112
  498   153   153
  499   596   596
  500   382   382
84779
